Traveling Salesman Problem/TSP_generados/Aleatorio1621103860_18.tsp
NAME: Aleatorio1621103860_18.tsp
COMMENT: Randomly generated scenario
TYPE: TSP
DIMENSION: 18
EDGE_WEIGHT_TYPE: ATT
NODE_COORD_SECTION
1 44.2 28.86
2 48.74 8.81
3 48.23 29.49
4 9.18 39.78
5 48.14 24.99
6 47.79 28.84
7 6.32 25.0
8 43.13 26.74
9 15.79 32.56
10 26.18 29.32
11 46.52 18.64
12 39.82 31.47
13 32.25 49.91
14 14.19 19.58
15 31.56 44.51
16 13.44 6.02
17 29.71 31.04
18 29.46 40.82
