Traveling Salesman Problem/TSP_generados/Aleatorio1621103860_18.opt.tour
NAME: Aleatorio1621103860_18.opt.tour
COMMENT: Optimal solution for Aleatorio1621103860_18 (171.11448467267792)
TYPE: TOUR
DIMENSION: 18
TOUR_SECTION
1 3 6 5 11 2 16 14 7 4 9 10 17 18 15 13 12 8
-1
EOF
